11,83
75,85
20,74
31,19
46,4
41,73
13,71
46,22
130,21
168,54
93,1
113,31
81,3
194,16
109,63
183,13
198,94
43,47
14,26
185,93
49,100
70,15
98,35
159,22
4,11
134,88
189,6
141,35
161,46
194,92
91,49
190,90
186,62
161,90
157,73
81,14
144,48
187,54
195,23
68,72
167,12
92,19
124,10
55,54
25,45
132,56
11,14
144,43
19,2
186,65
